# 6.1.1.12_group1_PF00152_30-85~6.1.1.6_group1_PF00152_30-85.sdpA
# All alignment positions within 5\AA of a ligand/cat site passing the sdpA filter.  Column indices start with 0.
87
91
120
127
129
299
342
352
356
